44074
1 1 1 1 1 1 1 1 1 1 1 1 1 0 0 1 1 1 0 1 1 1 1 1 1 1 1 1 1 1
19 20 1 4 9 3 8 6 24 4 9 4 8 12 9 2 7 16 16 5 16 16 4 5 17 4 21 0 20 16 6 5 7 3 2 24 7 24 5 0 1 25 26 1 3 22 12 15 22 23 17 19 24 4 24 4 15 9 22 1 17 27 22 29 4 4 5 2 9 6 20 3 17 8 20 6 22 11 15 16 5 5 11 23 20 5 15 2 24 15 9 4 8 27 29 26 20 29 5 3 6 9 6 11 27 7 17 11 7 9 25 1 3 1 7 17 20 8 11 6 15 10 10 15 28 15 21 20 8 16 10 12 12 9 16 26 5 5 22 1 2 17 19 11 6 19 11 8 11 9 12 11 5 22 4 16 0 24 24 17 23 20 19 17 26 0 2 5 19 23 2 19 24 4 23 10 24 10 27 2 19 4 28 6 28 15 29 4 28 29 0 8 26 9 8 10 4 1 27 8